% demand
num_movements = 47;
loading_factor = [1450, 1500, 1300, 2000, 900, 1350, 1150, 1600, 1700, 1800, 1000, 1400, 1750, 1750, 1050, 900, 1600, 1550, 1950, 800, 850, 1700, 1450, 850, 1100, 900, 1100, 1950, 1800, 1700, 1800, 1200, 1350, 1000, 1200, 800, 1100, 1550, 1200, 800, 1800, 2000, 1450, 1050, 1500, 1750, 1250];
pickup_time = [0, 0, 0, 0, 0, 0, 1, 1, 1, 1, 1, 2, 2, 4, 4, 4, 4, 4, 4, 4, 6, 6, 6, 7, 7, 7, 7, 7, 8, 8, 8, 8, 9, 9, 9, 10, 10, 11, 11, 11, 13, 13, 13, 13, 13, 13, 13];
delivery_time = [1, 2, 1, 1, 2, 2, 2, 3, 3, 4, 2, 6, 3, 7, 5, 6, 6, 6, 6, 6, 8, 7, 9, 12, 10, 8, 10, 8, 9, 9, 12, 11, 11, 12, 11, 11, 11, 12, 12, 12, 14, 14, 14, 14, 14, 14, 14];

% transporter definition
total_capacity = 11000;
num_decks = 4;
capacity = [3000, 3000, 1000, 4000];

% ways out of decks
num_ways_out = 2;
paths_out = array3d(decks, ways_out, decks, [
% ways out of deck d1
2, 4, 0, 0, 3, 4, 0, 0, 

% ways out of deck d2
4, 0, 0, 0, 0, 0, 0, 0,	

% ways out of deck d3
4, 0, 0, 0, 0, 0, 0, 0,	

% ways out of deck d4
0, 0, 0, 0,	0, 0, 0, 0,	

]);

